p cnf 10 50
-1 -2 -5 0
-9 1 8 0
7 2 -5 0
-6 7 5 0
-1 -4 -6 0
3 -6 5 0
-2 8 -10 0
4 -8 2 0
-9 -1 10 0
8 -6 -5 0
5 6 2 0
2 -3 7 0
1 7 -5 0
4 -9 -10 0
-9 -10 -4 0
-8 -9 -4 0
3 8 -4 0
-6 -10 -9 0
-3 4 10 0
7 -1 4 0
1 3 -4 0
-4 -2 8 0
2 5 -7 0
4 -3 -10 0
-6 8 -7 0
-2 10 7 0
-10 6 -4 0
-9 -4 -2 0
4 1 10 0
-4 5 7 0
9 2 -8 0
-1 -4 7 0
2 10 9 0
-2 10 3 0
-7 -5 -6 0
-2 -1 -8 0
10 5 -8 0
7 -4 9 0
-5 -3 -10 0
-9 -5 7 0
4 -5 7 0
10 -5 3 0
5 -4 7 0
-10 4 -1 0
8 3 6 0
-7 -9 8 0
1 3 10 0
8 5 -7 0
-10 -2 -6 0
10 -9 2 0
